; Copyright (c) 2026 The RIINA Authors. All rights reserved.
; Copyright (c) 2026 The RIINA Authors.
; Auto-generated from 02_FORMAL/coq/type_system/Progress.v (9 assertions)
; Generated by scripts/generate-full-stack.py
; Module: Progress

(set-logic ALL)
(set-option :produce-models true)

; canonical_bool (matches Coq: Lemma canonical_bool)
(assert (= true true)) ; canonical_bool [untranslatable]

; canonical_fn (matches Coq: Lemma canonical_fn)
(assert (= true true)) ; canonical_fn [untranslatable]

; canonical_pair (matches Coq: Lemma canonical_pair)
(assert (= true true)) ; canonical_pair [untranslatable]

; canonical_sum (matches Coq: Lemma canonical_sum)
(assert (= true true)) ; canonical_sum [untranslatable]

; canonical_ref (matches Coq: Lemma canonical_ref)
(assert (= true true)) ; canonical_ref [untranslatable]

; canonical_secret (matches Coq: Lemma canonical_secret)
(assert (= true true)) ; canonical_secret [untranslatable]

; canonical_proof (matches Coq: Lemma canonical_proof)
(assert (= true true)) ; canonical_proof [untranslatable]

; lookup_nil_contra (matches Coq: Lemma lookup_nil_contra)
(assert (= true true)) ; lookup_nil_contra [untranslatable]

; progress (matches Coq: Theorem progress)
(assert (= true true)) ; progress [untranslatable]

; Verify all assertions are satisfiable
(check-sat)
(exit)
